NAME          BLANK   
ROWS
 N  OBJROW
 L  R0000000
COLUMNS
    C0000000  OBJROW     -412.         R0000000  929.        
    C0000001  OBJROW     -302.         R0000000  9.          
    C0000002  OBJROW     -455.         R0000000  273.        
    C0000003  OBJROW     -780.         R0000000  408.        
    C0000004  OBJROW     -505.         R0000000  316.        
    C0000005  OBJROW     -420.         R0000000  240.        
    C0000006  OBJROW     -847.         R0000000  67.         
    C0000007  OBJROW     -98.          R0000000  870.        
    C0000008  OBJROW     -712.         R0000000  565.        
    C0000009  OBJROW     -315.         R0000000  14.         
    C0000010  OBJROW     -308.         R0000000  651.        
RHS
    RHS       R0000000  14110.      
BOUNDS
 BV BOUND     C0000000  1.          
 BV BOUND     C0000001  1.          
 BV BOUND     C0000002  1.          
 BV BOUND     C0000003  1.          
 BV BOUND     C0000004  1.          
 BV BOUND     C0000005  1.          
 BV BOUND     C0000006  1.          
 BV BOUND     C0000007  1.          
 BV BOUND     C0000008  1.          
 BV BOUND     C0000009  1.          
 BV BOUND     C0000010  1.          
ENDATA
